285 5
10 10 10 10 10 

0 0 0 0 0 0 3 2 14 26 
0 0 0 0 0 0 2 3 4 
7 0 0 0 0 3 3 8 6 5 
2 0 0 0 0 10 3 12 9 8 
8 0 0 0 0 6 2 12 7 
9 0 0 0 0 7 4 12 11 9 15 
8 0 0 0 0 9 2 11 9 
7 0 0 0 0 8 2 11 10 
9 0 0 0 0 7 1 10 
1 0 0 0 0 5 1 13 
4 0 0 0 0 10 1 13 
3 0 0 0 0 10 1 13 
0 0 0 0 0 0 1 38 
0 0 0 0 0 0 5 15 16 17 18 32 
2 0 0 0 0 3 2 22 19 
6 0 0 0 0 6 2 22 19 
8 0 0 0 0 5 2 22 20 
6 0 0 0 0 10 1 19 
2 0 0 0 0 10 1 20 
3 0 0 0 0 6 2 24 21 
7 0 0 0 0 9 1 23 
10 0 0 0 0 6 1 23 
4 0 0 0 0 10 1 25 
9 0 0 0 0 10 1 25 
0 0 0 0 0 0 1 38 
0 0 0 0 0 0 3 27 31 36 
4 0 0 3 0 0 2 35 28 
7 0 0 9 0 0 1 29 
1 0 0 7 0 0 1 30 
6 0 0 7 0 0 2 33 32 
2 0 0 7 0 0 2 34 32 
10 0 0 10 0 0 1 37 
5 0 0 10 0 0 2 37 112 
2 0 0 6 0 0 1 37 
3 0 0 6 0 0 1 37 
3 0 0 10 0 0 1 37 
0 0 0 0 0 0 1 38 
0 0 0 0 0 0 5 39 51 63 75 87 
0 0 0 0 0 0 4 40 42 43 46 
7 0 3 0 0 0 1 41 
10 0 9 0 0 0 3 49 48 44 
4 0 6 0 0 0 3 49 48 44 
8 0 5 0 0 0 3 48 44 245 
6 0 10 0 0 0 1 45 
2 0 7 0 0 0 1 47 
2 0 8 0 0 0 1 48 
2 0 9 0 0 0 1 50 
10 0 10 0 0 0 1 50 
5 0 8 0 0 0 1 50 
0 0 0 0 0 0 1 99 
0 0 0 0 0 0 4 52 53 54 55 
9 0 3 0 0 0 2 58 56 
9 0 3 0 0 0 2 58 56 
6 0 9 0 0 0 2 58 56 
8 0 8 0 0 0 2 56 282 
8 0 9 0 0 0 1 57 
2 0 9 0 0 0 2 61 59 
10 0 8 0 0 0 1 59 
2 0 9 0 0 0 1 60 
10 0 7 0 0 0 1 62 
6 0 10 0 0 0 1 62 
0 0 0 0 0 0 1 99 
0 0 0 0 0 0 4 64 67 68 73 
5 0 0 0 0 6 3 72 65 76 
5 0 0 0 0 7 2 71 66 
3 0 0 0 0 7 1 69 
5 0 0 0 0 4 1 69 
6 0 0 0 0 7 1 69 
7 0 0 0 0 5 1 70 
4 0 0 0 0 10 1 74 
6 0 0 0 0 10 1 74 
6 0 0 0 0 10 1 74 
4 0 0 0 0 9 1 74 
0 0 0 0 0 0 1 99 
0 0 0 0 0 0 3 76 79 82 
9 0 0 0 1 0 1 77 
1 0 0 0 7 0 2 80 78 
5 0 0 0 9 0 3 83 81 203 
9 0 0 0 7 0 2 83 80 
9 0 0 0 10 0 2 85 84 
8 0 0 0 10 0 2 85 84 
1 0 0 0 10 0 2 85 84 
4 0 0 0 5 0 1 84 
5 0 0 0 8 0 1 86 
3 0 0 0 8 0 1 86 
0 0 0 0 0 0 1 99 
0 0 0 0 0 0 3 88 90 92 
3 0 0 1 0 0 3 91 89 169 
8 0 0 10 0 0 3 97 95 93 
6 0 0 6 0 0 1 91 
2 0 0 9 0 0 2 97 96 
2 0 0 9 0 0 2 97 96 
8 0 0 9 0 0 1 94 
4 0 0 10 0 0 1 96 
8 0 0 6 0 0 1 96 
9 0 0 5 0 0 1 98 
2 0 0 10 0 0 1 98 
0 0 0 0 0 0 1 99 
0 0 0 0 0 0 5 100 122 134 156 178 
0 0 0 0 0 0 2 101 103 
3 5 0 0 0 8 2 106 102 
5 3 0 0 0 8 1 104 
5 10 0 0 0 6 1 104 
7 7 0 0 0 8 5 112 111 109 105 189 
10 6 0 0 0 4 3 116 110 107 
9 7 0 0 0 10 3 112 111 108 
10 9 0 0 0 8 2 119 108 
6 8 0 0 0 4 2 118 113 
8 10 0 0 0 9 4 120 119 118 117 
1 10 0 0 0 10 2 118 114 
1 10 0 0 0 5 3 120 118 117 
5 5 0 0 0 10 2 119 115 
1 7 0 0 0 6 1 114 
5 6 0 0 0 6 1 115 
3 8 0 0 0 6 1 117 
7 5 0 0 0 10 1 119 
1 10 0 0 0 10 1 121 
8 9 0 0 0 5 1 121 
7 7 0 0 0 10 1 121 
8 8 0 0 0 7 1 121 
0 0 0 0 0 0 1 248 
0 0 0 0 0 0 3 123 125 132 
8 0 0 6 0 0 2 128 124 
4 0 0 5 0 0 3 131 130 126 
10 0 0 10 0 0 2 128 127 
6 0 0 10 0 0 1 127 
5 0 0 10 0 0 1 129 
6 0 0 10 0 0 1 130 
6 0 0 4 0 0 1 133 
4 0 0 7 0 0 1 133 
8 0 0 8 0 0 1 133 
1 0 0 5 0 0 1 133 
0 0 0 0 0 0 4 200 212 224 236 
0 0 0 0 0 0 4 135 152 153 154 
8 0 4 0 0 6 2 151 136 
8 0 10 0 0 6 3 150 149 137 
9 0 6 0 0 5 2 148 138 
8 0 7 0 0 7 2 147 139 
9 0 8 0 0 6 3 146 145 140 
6 0 5 0 0 10 1 141 
5 0 7 0 0 4 1 142 
4 0 7 0 0 9 1 143 
2 0 7 0 0 10 1 144 
10 0 10 0 0 10 1 155 
8 0 7 0 0 5 1 155 
10 0 6 0 0 8 1 155 
2 0 6 0 0 10 1 155 
2 0 10 0 0 10 1 155 
10 0 9 0 0 8 1 155 
4 0 8 0 0 7 1 155 
2 0 10 0 0 8 1 155 
5 0 7 0 0 7 1 155 
3 0 10 0 0 9 1 155 
7 0 6 0 0 5 1 155 
0 0 0 0 0 0 1 248 
0 0 0 0 0 0 2 157 158 
1 3 0 3 0 0 2 163 159 
3 10 0 5 0 0 3 171 162 160 
9 10 0 6 0 0 2 171 161 
6 8 0 10 0 0 3 166 164 163 
2 7 0 6 0 0 2 166 162 
5 10 0 8 0 0 1 164 
6 9 0 10 0 0 3 174 168 167 
10 6 0 9 0 0 1 165 
6 10 0 6 0 0 3 174 173 167 
9 10 0 7 0 0 3 174 173 167 
2 5 0 7 0 0 2 170 169 
3 6 0 10 0 0 2 173 172 
7 5 0 6 0 0 1 172 
2 8 0 6 0 0 1 172 
6 6 0 10 0 0 1 173 
4 10 0 6 0 0 1 175 
8 6 0 7 0 0 1 175 
5 10 0 10 0 0 1 176 
6 3 0 8 0 0 1 177 
7 8 0 10 0 0 1 177 
0 0 0 0 0 0 1 248 
0 0 0 0 0 0 1 179 
6 0 4 2 0 0 2 185 180 
3 0 4 3 0 0 1 181 
7 0 7 9 0 0 3 198 195 182 
10 0 9 10 0 0 3 197 196 183 
5 0 8 10 0 0 2 192 184 
7 0 10 6 0 0 3 194 193 186 
9 0 8 6 0 0 4 195 192 190 187 
2 0 10 7 0 0 3 191 190 187 
9 0 6 7 0 0 1 188 
7 0 4 10 0 0 1 189 
7 0 7 7 0 0 1 199 
7 0 7 10 0 0 1 199 
1 0 10 7 0 0 1 199 
5 0 6 8 0 0 1 199 
7 0 9 8 0 0 1 199 
7 0 7 6 0 0 1 199 
5 0 10 10 0 0 1 199 
8 0 10 7 0 0 1 199 
3 0 6 7 0 0 1 199 
4 0 8 10 0 0 1 199 
0 0 0 0 0 0 1 248 
0 0 0 0 0 0 2 201 202 
9 0 3 0 0 0 2 206 203 
7 0 8 0 0 0 1 203 
1 0 10 0 0 0 2 205 204 
4 0 5 0 0 0 3 210 208 207 
6 0 5 0 0 0 2 210 207 
1 0 10 0 0 0 2 210 209 
5 0 10 0 0 0 1 209 
3 0 10 0 0 0 1 209 
2 0 8 0 0 0 1 211 
2 0 6 0 0 0 1 211 
0 0 0 0 0 0 1 248 
0 0 0 0 0 0 2 213 216 
2 4 0 0 0 0 4 222 221 215 214 
8 4 0 0 0 0 2 220 218 
2 8 0 0 0 0 1 217 
5 10 0 0 0 0 1 217 
7 10 0 0 0 0 1 218 
3 7 0 0 0 0 1 219 
8 8 0 0 0 0 1 223 
3 8 0 0 0 0 1 223 
4 9 0 0 0 0 1 223 
7 7 0 0 0 0 1 223 
0 0 0 0 0 0 1 248 
0 0 0 0 0 0 3 225 230 231 
10 0 0 0 0 2 2 229 226 
8 0 0 0 0 8 2 234 227 
2 0 0 0 0 6 2 232 228 
5 0 0 0 0 8 1 233 
10 0 0 0 0 8 1 232 
10 0 0 0 0 6 1 233 
3 0 0 0 0 10 1 232 
7 0 0 0 0 9 1 235 
10 0 0 0 0 8 1 235 
4 0 0 0 0 10 1 235 
0 0 0 0 0 0 1 248 
0 0 0 0 0 0 4 237 238 239 241 
5 0 0 0 0 5 2 244 242 
2 0 0 0 0 7 1 240 
4 0 0 0 0 8 2 246 243 
3 0 0 0 0 7 1 242 
6 0 0 0 0 10 1 242 
10 0 0 0 0 5 1 243 
7 0 0 0 0 10 1 245 
2 0 0 0 0 10 1 245 
6 0 0 0 0 8 1 247 
5 0 0 0 0 5 1 247 
0 0 0 0 0 0 1 248 
0 0 0 0 0 0 3 249 261 273 
0 0 0 0 0 0 2 250 253 
2 0 0 4 0 0 3 259 258 251 
8 0 0 7 0 0 1 252 
5 0 0 10 0 0 3 257 256 254 
3 0 0 5 0 0 2 259 258 
6 0 0 9 0 0 1 255 
1 0 0 8 0 0 1 260 
8 0 0 8 0 0 1 260 
1 0 0 7 0 0 1 260 
6 0 0 7 0 0 1 260 
8 0 0 10 0 0 1 260 
0 0 0 0 0 0 1 285 
0 0 0 0 0 0 4 262 267 268 271 
8 0 0 0 0 5 2 265 263 
7 0 0 0 0 5 1 264 
10 0 0 0 0 5 2 270 266 
5 0 0 0 0 7 2 270 269 
1 0 0 0 0 8 1 269 
9 0 0 0 0 10 1 269 
1 0 0 0 0 7 1 269 
8 0 0 0 0 10 1 272 
5 0 0 0 0 8 1 272 
9 0 0 0 0 10 1 272 
0 0 0 0 0 0 1 285 
0 0 0 0 0 0 2 274 276 
5 4 0 0 0 0 1 275 
3 5 0 0 0 0 2 283 277 
7 6 0 0 0 0 2 279 278 
3 7 0 0 0 0 3 281 280 279 
7 6 0 0 0 0 2 281 280 
7 10 0 0 0 0 1 282 
10 10 0 0 0 0 1 284 
3 7 0 0 0 0 1 284 
10 10 0 0 0 0 1 284 
9 10 0 0 0 0 1 284 
0 0 0 0 0 0 1 285 
0 0 0 0 0 0 0 
